(set-logic HORN)
(declare-fun invariant (Real Real Real Real Real Real Real Real Real Real Real Real Real Real Real Real Real Real Real Real Real Real Real Real Real Real Real Real Real Real Real Real Real Real Real Real Real Real Real Real Real Real Real Real Real Real Real Real Real Real Real Real Real Real Real Real Real Real Real Real Bool Bool Bool Bool Bool Bool Bool Bool Bool Bool Bool Bool Bool Real Real Real Real Real Real) Bool)

;; Initial state
(assert
  (forall ((state.cx!0!0 Real) (state.cx!0!1 Real) (state.cx!0!2 Real) (state.cx!0!3 Real) (state.cx!0!4 Real) (state.cx!0!5 Real) (state.cx!0!6 Real) (state.cx!0!7 Real) (state.cx!0!8 Real) (state.cx!0!9 Real) (state.cx!1!0 Real) (state.cx!1!1 Real) (state.cx!1!2 Real) (state.cx!1!3 Real) (state.cx!1!4 Real) (state.cx!1!5 Real) (state.cx!1!6 Real) (state.cx!1!7 Real) (state.cx!1!8 Real) (state.cx!1!9 Real) (state.cx!2!0 Real) (state.cx!2!1 Real) (state.cx!2!2 Real) (state.cx!2!3 Real) (state.cx!2!4 Real) (state.cx!2!5 Real) (state.cx!2!6 Real) (state.cx!2!7 Real) (state.cx!2!8 Real) (state.cx!2!9 Real) (state.cy!0!0 Real) (state.cy!0!1 Real) (state.cy!0!2 Real) (state.cy!0!3 Real) (state.cy!0!4 Real) (state.cy!0!5 Real) (state.cy!0!6 Real) (state.cy!0!7 Real) (state.cy!0!8 Real) (state.cy!0!9 Real) (state.cy!1!0 Real) (state.cy!1!1 Real) (state.cy!1!2 Real) (state.cy!1!3 Real) (state.cy!1!4 Real) (state.cy!1!5 Real) (state.cy!1!6 Real) (state.cy!1!7 Real) (state.cy!1!8 Real) (state.cy!1!9 Real) (state.cy!2!0 Real) (state.cy!2!1 Real) (state.cy!2!2 Real) (state.cy!2!3 Real) (state.cy!2!4 Real) (state.cy!2!5 Real) (state.cy!2!6 Real) (state.cy!2!7 Real) (state.cy!2!8 Real) (state.cy!2!9 Real) (state.good_p!0 Bool) (state.good_p!1 Bool) (state.good_p!2 Bool) (state.good_r!0 Bool) (state.good_r!1 Bool) (state.good_r!2 Bool) (state.good_r!3 Bool) (state.good_r!4 Bool) (state.good_r!5 Bool) (state.good_r!6 Bool) (state.good_r!7 Bool) (state.good_r!8 Bool) (state.good_r!9 Bool) (state.v!0 Real) (state.v!1 Real) (state.v!2 Real) (state.round Real) (state.source Real) (state.val Real))
    (=> (let ((l0 (= |state.round| 0))) (let ((l1 (= |state.cx!0!0| 0))) (let ((l2 (= |state.cx!0!1| 0))) (let ((l3 (= |state.cx!0!2| 0))) (let ((l4 (= |state.cx!0!3| 0))) (let ((l5 (= |state.cx!0!4| 0))) (let ((l6 (= |state.cx!0!5| 0))) (let ((l7 (= |state.cx!0!6| 0))) (let ((l8 (= |state.cx!0!7| 0))) (let ((l9 (= |state.cx!0!8| 0))) (let ((l10 (= |state.cx!0!9| 0))) (let ((l11 (= |state.cx!1!0| 0))) (let ((l12 (= |state.cx!1!1| 0))) (let ((l13 (= |state.cx!1!2| 0))) (let ((l14 (= |state.cx!1!3| 0))) (let ((l15 (= |state.cx!1!4| 0))) (let ((l16 (= |state.cx!1!5| 0))) (let ((l17 (= |state.cx!1!6| 0))) (let ((l18 (= |state.cx!1!7| 0))) (let ((l19 (= |state.cx!1!8| 0))) (let ((l20 (= |state.cx!1!9| 0))) (let ((l21 (= |state.cx!2!0| 0))) (let ((l22 (= |state.cx!2!1| 0))) (let ((l23 (= |state.cx!2!2| 0))) (let ((l24 (= |state.cx!2!3| 0))) (let ((l25 (= |state.cx!2!4| 0))) (let ((l26 (= |state.cx!2!5| 0))) (let ((l27 (= |state.cx!2!6| 0))) (let ((l28 (= |state.cx!2!7| 0))) (let ((l29 (= |state.cx!2!8| 0))) (let ((l30 (= |state.cx!2!9| 0))) (let ((l31 (= |state.cy!0!0| 0))) (let ((l32 (= |state.cy!0!1| 0))) (let ((l33 (= |state.cy!0!2| 0))) (let ((l34 (= |state.cy!0!3| 0))) (let ((l35 (= |state.cy!0!4| 0))) (let ((l36 (= |state.cy!0!5| 0))) (let ((l37 (= |state.cy!0!6| 0))) (let ((l38 (= |state.cy!0!7| 0))) (let ((l39 (= |state.cy!0!8| 0))) (let ((l40 (= |state.cy!0!9| 0))) (let ((l41 (= |state.cy!1!0| 0))) (let ((l42 (= |state.cy!1!1| 0))) (let ((l43 (= |state.cy!1!2| 0))) (let ((l44 (= |state.cy!1!3| 0))) (let ((l45 (= |state.cy!1!4| 0))) (let ((l46 (= |state.cy!1!5| 0))) (let ((l47 (= |state.cy!1!6| 0))) (let ((l48 (= |state.cy!1!7| 0))) (let ((l49 (= |state.cy!1!8| 0))) (let ((l50 (= |state.cy!1!9| 0))) (let ((l51 (= |state.cy!2!0| 0))) (let ((l52 (= |state.cy!2!1| 0))) (let ((l53 (= |state.cy!2!2| 0))) (let ((l54 (= |state.cy!2!3| 0))) (let ((l55 (= |state.cy!2!4| 0))) (let ((l56 (= |state.cy!2!5| 0))) (let ((l57 (= |state.cy!2!6| 0))) (let ((l58 (= |state.cy!2!7| 0))) (let ((l59 (= |state.cy!2!8| 0))) (let ((l60 (= |state.cy!2!9| 0))) (let ((l61 (= |state.source| 1))) (let ((l62 (= |state.source| 2))) (let ((l63 (= |state.source| 3))) (let ((l64 (or l61 l62 l63))) (let ((l65 (= |state.val| 0))) (let ((l66 (not l65))) (let ((l67 (and |state.good_p!0| |state.good_p!1| |state.good_p!2|))) (let ((l68 (not |state.good_r!0|))) (let ((l69 (and l68 |state.good_r!1| |state.good_r!2| |state.good_r!3| |state.good_r!4| |state.good_r!5| |state.good_r!6| |state.good_r!7| |state.good_r!8| |state.good_r!9|))) (let ((l70 (not |state.good_r!1|))) (let ((l71 (and l70 |state.good_r!0| |state.good_r!2| |state.good_r!3| |state.good_r!4| |state.good_r!5| |state.good_r!6| |state.good_r!7| |state.good_r!8| |state.good_r!9|))) (let ((l72 (not |state.good_r!2|))) (let ((l73 (and l72 |state.good_r!0| |state.good_r!1| |state.good_r!3| |state.good_r!4| |state.good_r!5| |state.good_r!6| |state.good_r!7| |state.good_r!8| |state.good_r!9|))) (let ((l74 (not |state.good_r!3|))) (let ((l75 (and l74 |state.good_r!0| |state.good_r!1| |state.good_r!2| |state.good_r!4| |state.good_r!5| |state.good_r!6| |state.good_r!7| |state.good_r!8| |state.good_r!9|))) (let ((l76 (not |state.good_r!4|))) (let ((l77 (and l76 |state.good_r!0| |state.good_r!1| |state.good_r!2| |state.good_r!3| |state.good_r!5| |state.good_r!6| |state.good_r!7| |state.good_r!8| |state.good_r!9|))) (let ((l78 (not |state.good_r!5|))) (let ((l79 (and l78 |state.good_r!0| |state.good_r!1| |state.good_r!2| |state.good_r!3| |state.good_r!4| |state.good_r!6| |state.good_r!7| |state.good_r!8| |state.good_r!9|))) (let ((l80 (not |state.good_r!6|))) (let ((l81 (and l80 |state.good_r!0| |state.good_r!1| |state.good_r!2| |state.good_r!3| |state.good_r!4| |state.good_r!5| |state.good_r!7| |state.good_r!8| |state.good_r!9|))) (let ((l82 (not |state.good_r!7|))) (let ((l83 (and l82 |state.good_r!0| |state.good_r!1| |state.good_r!2| |state.good_r!3| |state.good_r!4| |state.good_r!5| |state.good_r!6| |state.good_r!8| |state.good_r!9|))) (let ((l84 (not |state.good_r!8|))) (let ((l85 (and l84 |state.good_r!0| |state.good_r!1| |state.good_r!2| |state.good_r!3| |state.good_r!4| |state.good_r!5| |state.good_r!6| |state.good_r!7| |state.good_r!9|))) (let ((l86 (not |state.good_r!9|))) (let ((l87 (and l86 |state.good_r!0| |state.good_r!1| |state.good_r!2| |state.good_r!3| |state.good_r!4| |state.good_r!5| |state.good_r!6| |state.good_r!7| |state.good_r!8|))) (let ((l88 (or l69 l71 l73 l75 l77 l79 l81 l83 l85 l87))) (let ((l89 (and l0 l1 l2 l3 l4 l5 l6 l7 l8 l9 l10 l11 l12 l13 l14 l15 l16 l17 l18 l19 l20 l21 l22 l23 l24 l25 l26 l27 l28 l29 l30 l31 l32 l33 l34 l35 l36 l37 l38 l39 l40 l41 l42 l43 l44 l45 l46 l47 l48 l49 l50 l51 l52 l53 l54 l55 l56 l57 l58 l59 l60 l64 l66 l67 l88))) l89))))))))))))))))))))))))))))))))))))))))))))))))))))))))))))))))))))))))))))))))))))))))))
        (invariant state.cx!0!0 state.cx!0!1 state.cx!0!2 state.cx!0!3 state.cx!0!4 state.cx!0!5 state.cx!0!6 state.cx!0!7 state.cx!0!8 state.cx!0!9 state.cx!1!0 state.cx!1!1 state.cx!1!2 state.cx!1!3 state.cx!1!4 state.cx!1!5 state.cx!1!6 state.cx!1!7 state.cx!1!8 state.cx!1!9 state.cx!2!0 state.cx!2!1 state.cx!2!2 state.cx!2!3 state.cx!2!4 state.cx!2!5 state.cx!2!6 state.cx!2!7 state.cx!2!8 state.cx!2!9 state.cy!0!0 state.cy!0!1 state.cy!0!2 state.cy!0!3 state.cy!0!4 state.cy!0!5 state.cy!0!6 state.cy!0!7 state.cy!0!8 state.cy!0!9 state.cy!1!0 state.cy!1!1 state.cy!1!2 state.cy!1!3 state.cy!1!4 state.cy!1!5 state.cy!1!6 state.cy!1!7 state.cy!1!8 state.cy!1!9 state.cy!2!0 state.cy!2!1 state.cy!2!2 state.cy!2!3 state.cy!2!4 state.cy!2!5 state.cy!2!6 state.cy!2!7 state.cy!2!8 state.cy!2!9 state.good_p!0 state.good_p!1 state.good_p!2 state.good_r!0 state.good_r!1 state.good_r!2 state.good_r!3 state.good_r!4 state.good_r!5 state.good_r!6 state.good_r!7 state.good_r!8 state.good_r!9 state.v!0 state.v!1 state.v!2 state.round state.source state.val))
  )
)

;; Transition relation
(assert
  (forall ((state.cx!0!0 Real) (next.cx!0!0 Real) (state.cx!0!1 Real) (next.cx!0!1 Real) (state.cx!0!2 Real) (next.cx!0!2 Real) (state.cx!0!3 Real) (next.cx!0!3 Real) (state.cx!0!4 Real) (next.cx!0!4 Real) (state.cx!0!5 Real) (next.cx!0!5 Real) (state.cx!0!6 Real) (next.cx!0!6 Real) (state.cx!0!7 Real) (next.cx!0!7 Real) (state.cx!0!8 Real) (next.cx!0!8 Real) (state.cx!0!9 Real) (next.cx!0!9 Real) (state.cx!1!0 Real) (next.cx!1!0 Real) (state.cx!1!1 Real) (next.cx!1!1 Real) (state.cx!1!2 Real) (next.cx!1!2 Real) (state.cx!1!3 Real) (next.cx!1!3 Real) (state.cx!1!4 Real) (next.cx!1!4 Real) (state.cx!1!5 Real) (next.cx!1!5 Real) (state.cx!1!6 Real) (next.cx!1!6 Real) (state.cx!1!7 Real) (next.cx!1!7 Real) (state.cx!1!8 Real) (next.cx!1!8 Real) (state.cx!1!9 Real) (next.cx!1!9 Real) (state.cx!2!0 Real) (next.cx!2!0 Real) (state.cx!2!1 Real) (next.cx!2!1 Real) (state.cx!2!2 Real) (next.cx!2!2 Real) (state.cx!2!3 Real) (next.cx!2!3 Real) (state.cx!2!4 Real) (next.cx!2!4 Real) (state.cx!2!5 Real) (next.cx!2!5 Real) (state.cx!2!6 Real) (next.cx!2!6 Real) (state.cx!2!7 Real) (next.cx!2!7 Real) (state.cx!2!8 Real) (next.cx!2!8 Real) (state.cx!2!9 Real) (next.cx!2!9 Real) (state.cy!0!0 Real) (next.cy!0!0 Real) (state.cy!0!1 Real) (next.cy!0!1 Real) (state.cy!0!2 Real) (next.cy!0!2 Real) (state.cy!0!3 Real) (next.cy!0!3 Real) (state.cy!0!4 Real) (next.cy!0!4 Real) (state.cy!0!5 Real) (next.cy!0!5 Real) (state.cy!0!6 Real) (next.cy!0!6 Real) (state.cy!0!7 Real) (next.cy!0!7 Real) (state.cy!0!8 Real) (next.cy!0!8 Real) (state.cy!0!9 Real) (next.cy!0!9 Real) (state.cy!1!0 Real) (next.cy!1!0 Real) (state.cy!1!1 Real) (next.cy!1!1 Real) (state.cy!1!2 Real) (next.cy!1!2 Real) (state.cy!1!3 Real) (next.cy!1!3 Real) (state.cy!1!4 Real) (next.cy!1!4 Real) (state.cy!1!5 Real) (next.cy!1!5 Real) (state.cy!1!6 Real) (next.cy!1!6 Real) (state.cy!1!7 Real) (next.cy!1!7 Real) (state.cy!1!8 Real) (next.cy!1!8 Real) (state.cy!1!9 Real) (next.cy!1!9 Real) (state.cy!2!0 Real) (next.cy!2!0 Real) (state.cy!2!1 Real) (next.cy!2!1 Real) (state.cy!2!2 Real) (next.cy!2!2 Real) (state.cy!2!3 Real) (next.cy!2!3 Real) (state.cy!2!4 Real) (next.cy!2!4 Real) (state.cy!2!5 Real) (next.cy!2!5 Real) (state.cy!2!6 Real) (next.cy!2!6 Real) (state.cy!2!7 Real) (next.cy!2!7 Real) (state.cy!2!8 Real) (next.cy!2!8 Real) (state.cy!2!9 Real) (next.cy!2!9 Real) (state.good_p!0 Bool) (next.good_p!0 Bool) (state.good_p!1 Bool) (next.good_p!1 Bool) (state.good_p!2 Bool) (next.good_p!2 Bool) (state.good_r!0 Bool) (next.good_r!0 Bool) (state.good_r!1 Bool) (next.good_r!1 Bool) (state.good_r!2 Bool) (next.good_r!2 Bool) (state.good_r!3 Bool) (next.good_r!3 Bool) (state.good_r!4 Bool) (next.good_r!4 Bool) (state.good_r!5 Bool) (next.good_r!5 Bool) (state.good_r!6 Bool) (next.good_r!6 Bool) (state.good_r!7 Bool) (next.good_r!7 Bool) (state.good_r!8 Bool) (next.good_r!8 Bool) (state.good_r!9 Bool) (next.good_r!9 Bool) (state.v!0 Real) (next.v!0 Real) (state.v!1 Real) (next.v!1 Real) (state.v!2 Real) (next.v!2 Real) (state.round Real) (next.round Real) (state.source Real) (next.source Real) (state.val Real) (next.val Real))
    (=> (and (invariant state.cx!0!0 state.cx!0!1 state.cx!0!2 state.cx!0!3 state.cx!0!4 state.cx!0!5 state.cx!0!6 state.cx!0!7 state.cx!0!8 state.cx!0!9 state.cx!1!0 state.cx!1!1 state.cx!1!2 state.cx!1!3 state.cx!1!4 state.cx!1!5 state.cx!1!6 state.cx!1!7 state.cx!1!8 state.cx!1!9 state.cx!2!0 state.cx!2!1 state.cx!2!2 state.cx!2!3 state.cx!2!4 state.cx!2!5 state.cx!2!6 state.cx!2!7 state.cx!2!8 state.cx!2!9 state.cy!0!0 state.cy!0!1 state.cy!0!2 state.cy!0!3 state.cy!0!4 state.cy!0!5 state.cy!0!6 state.cy!0!7 state.cy!0!8 state.cy!0!9 state.cy!1!0 state.cy!1!1 state.cy!1!2 state.cy!1!3 state.cy!1!4 state.cy!1!5 state.cy!1!6 state.cy!1!7 state.cy!1!8 state.cy!1!9 state.cy!2!0 state.cy!2!1 state.cy!2!2 state.cy!2!3 state.cy!2!4 state.cy!2!5 state.cy!2!6 state.cy!2!7 state.cy!2!8 state.cy!2!9 state.good_p!0 state.good_p!1 state.good_p!2 state.good_r!0 state.good_r!1 state.good_r!2 state.good_r!3 state.good_r!4 state.good_r!5 state.good_r!6 state.good_r!7 state.good_r!8 state.good_r!9 state.v!0 state.v!1 state.v!2 state.round state.source state.val)
             (let ((l0 (= |next.source| |state.source|))) (let ((l1 (= |next.val| |state.val|))) (let ((l2 (= |state.round| 0))) (let ((l3 (not |state.good_p!0|))) (let ((l4 (= 1 |state.source|))) (let ((l5 (not l4))) (let ((l6 (= |next.cx!0!0| |state.val|))) (let ((l7 (= |next.cx!0!1| |state.val|))) (let ((l8 (= |next.cx!0!2| |state.val|))) (let ((l9 (= |next.cx!0!3| |state.val|))) (let ((l10 (= |next.cx!0!4| |state.val|))) (let ((l11 (= |next.cx!0!5| |state.val|))) (let ((l12 (= |next.cx!0!6| |state.val|))) (let ((l13 (= |next.cx!0!7| |state.val|))) (let ((l14 (= |next.cx!0!8| |state.val|))) (let ((l15 (= |next.cx!0!9| |state.val|))) (let ((l16 (and l6 l7 l8 l9 l10 l11 l12 l13 l14 l15))) (let ((l17 (or l3 l5 l16))) (let ((l18 (not |state.good_p!1|))) (let ((l19 (= 2 |state.source|))) (let ((l20 (not l19))) (let ((l21 (= |next.cx!1!0| |state.val|))) (let ((l22 (= |next.cx!1!1| |state.val|))) (let ((l23 (= |next.cx!1!2| |state.val|))) (let ((l24 (= |next.cx!1!3| |state.val|))) (let ((l25 (= |next.cx!1!4| |state.val|))) (let ((l26 (= |next.cx!1!5| |state.val|))) (let ((l27 (= |next.cx!1!6| |state.val|))) (let ((l28 (= |next.cx!1!7| |state.val|))) (let ((l29 (= |next.cx!1!8| |state.val|))) (let ((l30 (= |next.cx!1!9| |state.val|))) (let ((l31 (and l21 l22 l23 l24 l25 l26 l27 l28 l29 l30))) (let ((l32 (or l18 l20 l31))) (let ((l33 (not |state.good_p!2|))) (let ((l34 (= 3 |state.source|))) (let ((l35 (not l34))) (let ((l36 (= |next.cx!2!0| |state.val|))) (let ((l37 (= |next.cx!2!1| |state.val|))) (let ((l38 (= |next.cx!2!2| |state.val|))) (let ((l39 (= |next.cx!2!3| |state.val|))) (let ((l40 (= |next.cx!2!4| |state.val|))) (let ((l41 (= |next.cx!2!5| |state.val|))) (let ((l42 (= |next.cx!2!6| |state.val|))) (let ((l43 (= |next.cx!2!7| |state.val|))) (let ((l44 (= |next.cx!2!8| |state.val|))) (let ((l45 (= |next.cx!2!9| |state.val|))) (let ((l46 (and l36 l37 l38 l39 l40 l41 l42 l43 l44 l45))) (let ((l47 (or l33 l35 l46))) (let ((l48 (= |next.cx!0!0| 0))) (let ((l49 (= |next.cx!0!1| 0))) (let ((l50 (= |next.cx!0!2| 0))) (let ((l51 (= |next.cx!0!3| 0))) (let ((l52 (= |next.cx!0!4| 0))) (let ((l53 (= |next.cx!0!5| 0))) (let ((l54 (= |next.cx!0!6| 0))) (let ((l55 (= |next.cx!0!7| 0))) (let ((l56 (= |next.cx!0!8| 0))) (let ((l57 (= |next.cx!0!9| 0))) (let ((l58 (and l48 l49 l50 l51 l52 l53 l54 l55 l56 l57))) (let ((l59 (or l3 l4 l58))) (let ((l60 (= |next.cx!1!0| 0))) (let ((l61 (= |next.cx!1!1| 0))) (let ((l62 (= |next.cx!1!2| 0))) (let ((l63 (= |next.cx!1!3| 0))) (let ((l64 (= |next.cx!1!4| 0))) (let ((l65 (= |next.cx!1!5| 0))) (let ((l66 (= |next.cx!1!6| 0))) (let ((l67 (= |next.cx!1!7| 0))) (let ((l68 (= |next.cx!1!8| 0))) (let ((l69 (= |next.cx!1!9| 0))) (let ((l70 (and l60 l61 l62 l63 l64 l65 l66 l67 l68 l69))) (let ((l71 (or l18 l19 l70))) (let ((l72 (= |next.cx!2!0| 0))) (let ((l73 (= |next.cx!2!1| 0))) (let ((l74 (= |next.cx!2!2| 0))) (let ((l75 (= |next.cx!2!3| 0))) (let ((l76 (= |next.cx!2!4| 0))) (let ((l77 (= |next.cx!2!5| 0))) (let ((l78 (= |next.cx!2!6| 0))) (let ((l79 (= |next.cx!2!7| 0))) (let ((l80 (= |next.cx!2!8| 0))) (let ((l81 (= |next.cx!2!9| 0))) (let ((l82 (and l72 l73 l74 l75 l76 l77 l78 l79 l80 l81))) (let ((l83 (or l33 l34 l82))) (let ((l84 (and l17 l32 l47 l59 l71 l83))) (let ((l85 (= |next.round| 1))) (let ((l86 (= |next.cy!0!0| |state.cy!0!0|))) (let ((l87 (= |next.cy!0!1| |state.cy!0!1|))) (let ((l88 (= |next.cy!0!2| |state.cy!0!2|))) (let ((l89 (= |next.cy!0!3| |state.cy!0!3|))) (let ((l90 (= |next.cy!0!4| |state.cy!0!4|))) (let ((l91 (= |next.cy!0!5| |state.cy!0!5|))) (let ((l92 (= |next.cy!0!6| |state.cy!0!6|))) (let ((l93 (= |next.cy!0!7| |state.cy!0!7|))) (let ((l94 (= |next.cy!0!8| |state.cy!0!8|))) (let ((l95 (= |next.cy!0!9| |state.cy!0!9|))) (let ((l96 (= |next.cy!1!0| |state.cy!1!0|))) (let ((l97 (= |next.cy!1!1| |state.cy!1!1|))) (let ((l98 (= |next.cy!1!2| |state.cy!1!2|))) (let ((l99 (= |next.cy!1!3| |state.cy!1!3|))) (let ((l100 (= |next.cy!1!4| |state.cy!1!4|))) (let ((l101 (= |next.cy!1!5| |state.cy!1!5|))) (let ((l102 (= |next.cy!1!6| |state.cy!1!6|))) (let ((l103 (= |next.cy!1!7| |state.cy!1!7|))) (let ((l104 (= |next.cy!1!8| |state.cy!1!8|))) (let ((l105 (= |next.cy!1!9| |state.cy!1!9|))) (let ((l106 (= |next.cy!2!0| |state.cy!2!0|))) (let ((l107 (= |next.cy!2!1| |state.cy!2!1|))) (let ((l108 (= |next.cy!2!2| |state.cy!2!2|))) (let ((l109 (= |next.cy!2!3| |state.cy!2!3|))) (let ((l110 (= |next.cy!2!4| |state.cy!2!4|))) (let ((l111 (= |next.cy!2!5| |state.cy!2!5|))) (let ((l112 (= |next.cy!2!6| |state.cy!2!6|))) (let ((l113 (= |next.cy!2!7| |state.cy!2!7|))) (let ((l114 (= |next.cy!2!8| |state.cy!2!8|))) (let ((l115 (= |next.cy!2!9| |state.cy!2!9|))) (let ((l116 (and l86 l87 l88 l89 l90 l91 l92 l93 l94 l95 l96 l97 l98 l99 l100 l101 l102 l103 l104 l105 l106 l107 l108 l109 l110 l111 l112 l113 l114 l115))) (let ((l117 (= |next.good_p!0| |state.good_p!0|))) (let ((l118 (= |next.good_p!1| |state.good_p!1|))) (let ((l119 (= |next.good_p!2| |state.good_p!2|))) (let ((l120 (and l117 l118 l119))) (let ((l121 (= |next.good_r!0| |state.good_r!0|))) (let ((l122 (= |next.good_r!1| |state.good_r!1|))) (let ((l123 (= |next.good_r!2| |state.good_r!2|))) (let ((l124 (= |next.good_r!3| |state.good_r!3|))) (let ((l125 (= |next.good_r!4| |state.good_r!4|))) (let ((l126 (= |next.good_r!5| |state.good_r!5|))) (let ((l127 (= |next.good_r!6| |state.good_r!6|))) (let ((l128 (= |next.good_r!7| |state.good_r!7|))) (let ((l129 (= |next.good_r!8| |state.good_r!8|))) (let ((l130 (= |next.good_r!9| |state.good_r!9|))) (let ((l131 (and l121 l122 l123 l124 l125 l126 l127 l128 l129 l130))) (let ((l132 (= |next.v!0| |state.v!0|))) (let ((l133 (= |next.v!1| |state.v!1|))) (let ((l134 (= |next.v!2| |state.v!2|))) (let ((l135 (and l132 l133 l134))) (let ((l136 (and l2 l84 l85 l116 l120 l131 l135))) (let ((l137 (= |state.round| 1))) (let ((l138 (not |state.good_r!0|))) (let ((l139 (= |state.source| 3))) (let ((l140 (= |state.source| 2))) (let ((l141 (ite l140 |state.cx!1!0| |state.cx!0!0|))) (let ((l142 (ite l139 |state.cx!2!0| l141))) (let ((l143 (= |next.cy!0!0| l142))) (let ((l144 (or l138 l143))) (let ((l145 (= |next.cy!1!0| l142))) (let ((l146 (or l138 l145))) (let ((l147 (= |next.cy!2!0| l142))) (let ((l148 (or l138 l147))) (let ((l149 (not |state.good_r!1|))) (let ((l150 (ite l140 |state.cx!1!1| |state.cx!0!1|))) (let ((l151 (ite l139 |state.cx!2!1| l150))) (let ((l152 (= |next.cy!0!1| l151))) (let ((l153 (or l149 l152))) (let ((l154 (= |next.cy!1!1| l151))) (let ((l155 (or l149 l154))) (let ((l156 (= |next.cy!2!1| l151))) (let ((l157 (or l149 l156))) (let ((l158 (not |state.good_r!2|))) (let ((l159 (ite l140 |state.cx!1!2| |state.cx!0!2|))) (let ((l160 (ite l139 |state.cx!2!2| l159))) (let ((l161 (= |next.cy!0!2| l160))) (let ((l162 (or l158 l161))) (let ((l163 (= |next.cy!1!2| l160))) (let ((l164 (or l158 l163))) (let ((l165 (= |next.cy!2!2| l160))) (let ((l166 (or l158 l165))) (let ((l167 (not |state.good_r!3|))) (let ((l168 (ite l140 |state.cx!1!3| |state.cx!0!3|))) (let ((l169 (ite l139 |state.cx!2!3| l168))) (let ((l170 (= |next.cy!0!3| l169))) (let ((l171 (or l167 l170))) (let ((l172 (= |next.cy!1!3| l169))) (let ((l173 (or l167 l172))) (let ((l174 (= |next.cy!2!3| l169))) (let ((l175 (or l167 l174))) (let ((l176 (not |state.good_r!4|))) (let ((l177 (ite l140 |state.cx!1!4| |state.cx!0!4|))) (let ((l178 (ite l139 |state.cx!2!4| l177))) (let ((l179 (= |next.cy!0!4| l178))) (let ((l180 (or l176 l179))) (let ((l181 (= |next.cy!1!4| l178))) (let ((l182 (or l176 l181))) (let ((l183 (= |next.cy!2!4| l178))) (let ((l184 (or l176 l183))) (let ((l185 (not |state.good_r!5|))) (let ((l186 (ite l140 |state.cx!1!5| |state.cx!0!5|))) (let ((l187 (ite l139 |state.cx!2!5| l186))) (let ((l188 (= |next.cy!0!5| l187))) (let ((l189 (or l185 l188))) (let ((l190 (= |next.cy!1!5| l187))) (let ((l191 (or l185 l190))) (let ((l192 (= |next.cy!2!5| l187))) (let ((l193 (or l185 l192))) (let ((l194 (not |state.good_r!6|))) (let ((l195 (ite l140 |state.cx!1!6| |state.cx!0!6|))) (let ((l196 (ite l139 |state.cx!2!6| l195))) (let ((l197 (= |next.cy!0!6| l196))) (let ((l198 (or l194 l197))) (let ((l199 (= |next.cy!1!6| l196))) (let ((l200 (or l194 l199))) (let ((l201 (= |next.cy!2!6| l196))) (let ((l202 (or l194 l201))) (let ((l203 (not |state.good_r!7|))) (let ((l204 (ite l140 |state.cx!1!7| |state.cx!0!7|))) (let ((l205 (ite l139 |state.cx!2!7| l204))) (let ((l206 (= |next.cy!0!7| l205))) (let ((l207 (or l203 l206))) (let ((l208 (= |next.cy!1!7| l205))) (let ((l209 (or l203 l208))) (let ((l210 (= |next.cy!2!7| l205))) (let ((l211 (or l203 l210))) (let ((l212 (not |state.good_r!8|))) (let ((l213 (ite l140 |state.cx!1!8| |state.cx!0!8|))) (let ((l214 (ite l139 |state.cx!2!8| l213))) (let ((l215 (= |next.cy!0!8| l214))) (let ((l216 (or l212 l215))) (let ((l217 (= |next.cy!1!8| l214))) (let ((l218 (or l212 l217))) (let ((l219 (= |next.cy!2!8| l214))) (let ((l220 (or l212 l219))) (let ((l221 (not |state.good_r!9|))) (let ((l222 (ite l140 |state.cx!1!9| |state.cx!0!9|))) (let ((l223 (ite l139 |state.cx!2!9| l222))) (let ((l224 (= |next.cy!0!9| l223))) (let ((l225 (or l221 l224))) (let ((l226 (= |next.cy!1!9| l223))) (let ((l227 (or l221 l226))) (let ((l228 (= |next.cy!2!9| l223))) (let ((l229 (or l221 l228))) (let ((l230 (and l144 l146 l148 l153 l155 l157 l162 l164 l166 l171 l173 l175 l180 l182 l184 l189 l191 l193 l198 l200 l202 l207 l209 l211 l216 l218 l220 l225 l227 l229))) (let ((l231 (= |next.round| 2))) (let ((l232 (= |next.cx!0!0| |state.cx!0!0|))) (let ((l233 (= |next.cx!0!1| |state.cx!0!1|))) (let ((l234 (= |next.cx!0!2| |state.cx!0!2|))) (let ((l235 (= |next.cx!0!3| |state.cx!0!3|))) (let ((l236 (= |next.cx!0!4| |state.cx!0!4|))) (let ((l237 (= |next.cx!0!5| |state.cx!0!5|))) (let ((l238 (= |next.cx!0!6| |state.cx!0!6|))) (let ((l239 (= |next.cx!0!7| |state.cx!0!7|))) (let ((l240 (= |next.cx!0!8| |state.cx!0!8|))) (let ((l241 (= |next.cx!0!9| |state.cx!0!9|))) (let ((l242 (= |next.cx!1!0| |state.cx!1!0|))) (let ((l243 (= |next.cx!1!1| |state.cx!1!1|))) (let ((l244 (= |next.cx!1!2| |state.cx!1!2|))) (let ((l245 (= |next.cx!1!3| |state.cx!1!3|))) (let ((l246 (= |next.cx!1!4| |state.cx!1!4|))) (let ((l247 (= |next.cx!1!5| |state.cx!1!5|))) (let ((l248 (= |next.cx!1!6| |state.cx!1!6|))) (let ((l249 (= |next.cx!1!7| |state.cx!1!7|))) (let ((l250 (= |next.cx!1!8| |state.cx!1!8|))) (let ((l251 (= |next.cx!1!9| |state.cx!1!9|))) (let ((l252 (= |next.cx!2!0| |state.cx!2!0|))) (let ((l253 (= |next.cx!2!1| |state.cx!2!1|))) (let ((l254 (= |next.cx!2!2| |state.cx!2!2|))) (let ((l255 (= |next.cx!2!3| |state.cx!2!3|))) (let ((l256 (= |next.cx!2!4| |state.cx!2!4|))) (let ((l257 (= |next.cx!2!5| |state.cx!2!5|))) (let ((l258 (= |next.cx!2!6| |state.cx!2!6|))) (let ((l259 (= |next.cx!2!7| |state.cx!2!7|))) (let ((l260 (= |next.cx!2!8| |state.cx!2!8|))) (let ((l261 (= |next.cx!2!9| |state.cx!2!9|))) (let ((l262 (and l232 l233 l234 l235 l236 l237 l238 l239 l240 l241 l242 l243 l244 l245 l246 l247 l248 l249 l250 l251 l252 l253 l254 l255 l256 l257 l258 l259 l260 l261))) (let ((l263 (and l137 l230 l231 l262 l120 l131 l135))) (let ((l264 (= |state.round| 2))) (let ((l265 (= |state.cy!0!8| |state.cy!0!9|))) (let ((l266 (ite l265 2 0))) (let ((l267 (= l266 0))) (let ((l268 (= |state.cy!0!7| |state.cy!0!9|))) (let ((l269 (+ l266 1))) (let ((l270 (- l266 1))) (let ((l271 (ite l268 l269 l270))) (let ((l272 (ite l267 1 l271))) (let ((l273 (= l272 0))) (let ((l274 (ite l267 |state.cy!0!7| |state.cy!0!9|))) (let ((l275 (= |state.cy!0!6| l274))) (let ((l276 (+ l272 1))) (let ((l277 (- l272 1))) (let ((l278 (ite l275 l276 l277))) (let ((l279 (ite l273 1 l278))) (let ((l280 (= l279 0))) (let ((l281 (ite l273 |state.cy!0!6| l274))) (let ((l282 (= |state.cy!0!5| l281))) (let ((l283 (+ l279 1))) (let ((l284 (- l279 1))) (let ((l285 (ite l282 l283 l284))) (let ((l286 (ite l280 1 l285))) (let ((l287 (= l286 0))) (let ((l288 (ite l280 |state.cy!0!5| l281))) (let ((l289 (= |state.cy!0!4| l288))) (let ((l290 (+ l286 1))) (let ((l291 (- l286 1))) (let ((l292 (ite l289 l290 l291))) (let ((l293 (ite l287 1 l292))) (let ((l294 (= l293 0))) (let ((l295 (ite l287 |state.cy!0!4| l288))) (let ((l296 (= |state.cy!0!3| l295))) (let ((l297 (+ l293 1))) (let ((l298 (- l293 1))) (let ((l299 (ite l296 l297 l298))) (let ((l300 (ite l294 1 l299))) (let ((l301 (= l300 0))) (let ((l302 (ite l294 |state.cy!0!3| l295))) (let ((l303 (= |state.cy!0!2| l302))) (let ((l304 (+ l300 1))) (let ((l305 (- l300 1))) (let ((l306 (ite l303 l304 l305))) (let ((l307 (ite l301 1 l306))) (let ((l308 (= l307 0))) (let ((l309 (ite l301 |state.cy!0!2| l302))) (let ((l310 (= |state.cy!0!1| l309))) (let ((l311 (+ l307 1))) (let ((l312 (- l307 1))) (let ((l313 (ite l310 l311 l312))) (let ((l314 (ite l308 1 l313))) (let ((l315 (= l314 0))) (let ((l316 (ite l308 |state.cy!0!1| l309))) (let ((l317 (ite l315 |state.cy!0!0| l316))) (let ((l318 (= |state.cy!0!9| l317))) (let ((l319 (ite l318 5 6))) (let ((l320 (= l319 0))) (let ((l321 (= |state.cy!0!8| l317))) (let ((l322 (- l319 1))) (let ((l323 (ite l321 l322 l319))) (let ((l324 (= l323 0))) (let ((l325 (= |state.cy!0!7| l317))) (let ((l326 (- l323 1))) (let ((l327 (ite l325 l326 l323))) (let ((l328 (= l327 0))) (let ((l329 (= |state.cy!0!6| l317))) (let ((l330 (- l327 1))) (let ((l331 (ite l329 l330 l327))) (let ((l332 (= l331 0))) (let ((l333 (= |state.cy!0!5| l317))) (let ((l334 (- l331 1))) (let ((l335 (ite l333 l334 l331))) (let ((l336 (= l335 0))) (let ((l337 (= |state.cy!0!4| l317))) (let ((l338 (- l335 1))) (let ((l339 (ite l337 l338 l335))) (let ((l340 (= l339 0))) (let ((l341 (= |state.cy!0!3| l317))) (let ((l342 (- l339 1))) (let ((l343 (ite l341 l342 l339))) (let ((l344 (= l343 0))) (let ((l345 (= |state.cy!0!2| l317))) (let ((l346 (- l343 1))) (let ((l347 (ite l345 l346 l343))) (let ((l348 (= l347 0))) (let ((l349 (= |state.cy!0!1| l317))) (let ((l350 (- l347 1))) (let ((l351 (ite l349 l350 l347))) (let ((l352 (= l351 0))) (let ((l353 (= |state.cy!0!0| l317))) (let ((l354 (- l351 1))) (let ((l355 (ite l353 l354 l351))) (let ((l356 (= l355 0))) (let ((l357 (or l320 l324 l328 l332 l336 l340 l344 l348 l352 l356))) (let ((l358 (ite l357 l317 0))) (let ((l359 (= |next.v!0| l358))) (let ((l360 (or l3 l359))) (let ((l361 (= |state.cy!1!8| |state.cy!1!9|))) (let ((l362 (ite l361 2 0))) (let ((l363 (= l362 0))) (let ((l364 (= |state.cy!1!7| |state.cy!1!9|))) (let ((l365 (+ l362 1))) (let ((l366 (- l362 1))) (let ((l367 (ite l364 l365 l366))) (let ((l368 (ite l363 1 l367))) (let ((l369 (= l368 0))) (let ((l370 (ite l363 |state.cy!1!7| |state.cy!1!9|))) (let ((l371 (= |state.cy!1!6| l370))) (let ((l372 (+ l368 1))) (let ((l373 (- l368 1))) (let ((l374 (ite l371 l372 l373))) (let ((l375 (ite l369 1 l374))) (let ((l376 (= l375 0))) (let ((l377 (ite l369 |state.cy!1!6| l370))) (let ((l378 (= |state.cy!1!5| l377))) (let ((l379 (+ l375 1))) (let ((l380 (- l375 1))) (let ((l381 (ite l378 l379 l380))) (let ((l382 (ite l376 1 l381))) (let ((l383 (= l382 0))) (let ((l384 (ite l376 |state.cy!1!5| l377))) (let ((l385 (= |state.cy!1!4| l384))) (let ((l386 (+ l382 1))) (let ((l387 (- l382 1))) (let ((l388 (ite l385 l386 l387))) (let ((l389 (ite l383 1 l388))) (let ((l390 (= l389 0))) (let ((l391 (ite l383 |state.cy!1!4| l384))) (let ((l392 (= |state.cy!1!3| l391))) (let ((l393 (+ l389 1))) (let ((l394 (- l389 1))) (let ((l395 (ite l392 l393 l394))) (let ((l396 (ite l390 1 l395))) (let ((l397 (= l396 0))) (let ((l398 (ite l390 |state.cy!1!3| l391))) (let ((l399 (= |state.cy!1!2| l398))) (let ((l400 (+ l396 1))) (let ((l401 (- l396 1))) (let ((l402 (ite l399 l400 l401))) (let ((l403 (ite l397 1 l402))) (let ((l404 (= l403 0))) (let ((l405 (ite l397 |state.cy!1!2| l398))) (let ((l406 (= |state.cy!1!1| l405))) (let ((l407 (+ l403 1))) (let ((l408 (- l403 1))) (let ((l409 (ite l406 l407 l408))) (let ((l410 (ite l404 1 l409))) (let ((l411 (= l410 0))) (let ((l412 (ite l404 |state.cy!1!1| l405))) (let ((l413 (ite l411 |state.cy!1!0| l412))) (let ((l414 (= |state.cy!1!9| l413))) (let ((l415 (ite l414 5 6))) (let ((l416 (= l415 0))) (let ((l417 (= |state.cy!1!8| l413))) (let ((l418 (- l415 1))) (let ((l419 (ite l417 l418 l415))) (let ((l420 (= l419 0))) (let ((l421 (= |state.cy!1!7| l413))) (let ((l422 (- l419 1))) (let ((l423 (ite l421 l422 l419))) (let ((l424 (= l423 0))) (let ((l425 (= |state.cy!1!6| l413))) (let ((l426 (- l423 1))) (let ((l427 (ite l425 l426 l423))) (let ((l428 (= l427 0))) (let ((l429 (= |state.cy!1!5| l413))) (let ((l430 (- l427 1))) (let ((l431 (ite l429 l430 l427))) (let ((l432 (= l431 0))) (let ((l433 (= |state.cy!1!4| l413))) (let ((l434 (- l431 1))) (let ((l435 (ite l433 l434 l431))) (let ((l436 (= l435 0))) (let ((l437 (= |state.cy!1!3| l413))) (let ((l438 (- l435 1))) (let ((l439 (ite l437 l438 l435))) (let ((l440 (= l439 0))) (let ((l441 (= |state.cy!1!2| l413))) (let ((l442 (- l439 1))) (let ((l443 (ite l441 l442 l439))) (let ((l444 (= l443 0))) (let ((l445 (= |state.cy!1!1| l413))) (let ((l446 (- l443 1))) (let ((l447 (ite l445 l446 l443))) (let ((l448 (= l447 0))) (let ((l449 (= |state.cy!1!0| l413))) (let ((l450 (- l447 1))) (let ((l451 (ite l449 l450 l447))) (let ((l452 (= l451 0))) (let ((l453 (or l416 l420 l424 l428 l432 l436 l440 l444 l448 l452))) (let ((l454 (ite l453 l413 0))) (let ((l455 (= |next.v!1| l454))) (let ((l456 (or l18 l455))) (let ((l457 (= |state.cy!2!8| |state.cy!2!9|))) (let ((l458 (ite l457 2 0))) (let ((l459 (= l458 0))) (let ((l460 (= |state.cy!2!7| |state.cy!2!9|))) (let ((l461 (+ l458 1))) (let ((l462 (- l458 1))) (let ((l463 (ite l460 l461 l462))) (let ((l464 (ite l459 1 l463))) (let ((l465 (= l464 0))) (let ((l466 (ite l459 |state.cy!2!7| |state.cy!2!9|))) (let ((l467 (= |state.cy!2!6| l466))) (let ((l468 (+ l464 1))) (let ((l469 (- l464 1))) (let ((l470 (ite l467 l468 l469))) (let ((l471 (ite l465 1 l470))) (let ((l472 (= l471 0))) (let ((l473 (ite l465 |state.cy!2!6| l466))) (let ((l474 (= |state.cy!2!5| l473))) (let ((l475 (+ l471 1))) (let ((l476 (- l471 1))) (let ((l477 (ite l474 l475 l476))) (let ((l478 (ite l472 1 l477))) (let ((l479 (= l478 0))) (let ((l480 (ite l472 |state.cy!2!5| l473))) (let ((l481 (= |state.cy!2!4| l480))) (let ((l482 (+ l478 1))) (let ((l483 (- l478 1))) (let ((l484 (ite l481 l482 l483))) (let ((l485 (ite l479 1 l484))) (let ((l486 (= l485 0))) (let ((l487 (ite l479 |state.cy!2!4| l480))) (let ((l488 (= |state.cy!2!3| l487))) (let ((l489 (+ l485 1))) (let ((l490 (- l485 1))) (let ((l491 (ite l488 l489 l490))) (let ((l492 (ite l486 1 l491))) (let ((l493 (= l492 0))) (let ((l494 (ite l486 |state.cy!2!3| l487))) (let ((l495 (= |state.cy!2!2| l494))) (let ((l496 (+ l492 1))) (let ((l497 (- l492 1))) (let ((l498 (ite l495 l496 l497))) (let ((l499 (ite l493 1 l498))) (let ((l500 (= l499 0))) (let ((l501 (ite l493 |state.cy!2!2| l494))) (let ((l502 (= |state.cy!2!1| l501))) (let ((l503 (+ l499 1))) (let ((l504 (- l499 1))) (let ((l505 (ite l502 l503 l504))) (let ((l506 (ite l500 1 l505))) (let ((l507 (= l506 0))) (let ((l508 (ite l500 |state.cy!2!1| l501))) (let ((l509 (ite l507 |state.cy!2!0| l508))) (let ((l510 (= |state.cy!2!9| l509))) (let ((l511 (ite l510 5 6))) (let ((l512 (= l511 0))) (let ((l513 (= |state.cy!2!8| l509))) (let ((l514 (- l511 1))) (let ((l515 (ite l513 l514 l511))) (let ((l516 (= l515 0))) (let ((l517 (= |state.cy!2!7| l509))) (let ((l518 (- l515 1))) (let ((l519 (ite l517 l518 l515))) (let ((l520 (= l519 0))) (let ((l521 (= |state.cy!2!6| l509))) (let ((l522 (- l519 1))) (let ((l523 (ite l521 l522 l519))) (let ((l524 (= l523 0))) (let ((l525 (= |state.cy!2!5| l509))) (let ((l526 (- l523 1))) (let ((l527 (ite l525 l526 l523))) (let ((l528 (= l527 0))) (let ((l529 (= |state.cy!2!4| l509))) (let ((l530 (- l527 1))) (let ((l531 (ite l529 l530 l527))) (let ((l532 (= l531 0))) (let ((l533 (= |state.cy!2!3| l509))) (let ((l534 (- l531 1))) (let ((l535 (ite l533 l534 l531))) (let ((l536 (= l535 0))) (let ((l537 (= |state.cy!2!2| l509))) (let ((l538 (- l535 1))) (let ((l539 (ite l537 l538 l535))) (let ((l540 (= l539 0))) (let ((l541 (= |state.cy!2!1| l509))) (let ((l542 (- l539 1))) (let ((l543 (ite l541 l542 l539))) (let ((l544 (= l543 0))) (let ((l545 (= |state.cy!2!0| l509))) (let ((l546 (- l543 1))) (let ((l547 (ite l545 l546 l543))) (let ((l548 (= l547 0))) (let ((l549 (or l512 l516 l520 l524 l528 l532 l536 l540 l544 l548))) (let ((l550 (ite l549 l509 0))) (let ((l551 (= |next.v!2| l550))) (let ((l552 (or l33 l551))) (let ((l553 (and l360 l456 l552))) (let ((l554 (= |next.round| 3))) (let ((l555 (and l264 l553 l554 l262 l116 l120 l131))) (let ((l556 (= |state.round| 3))) (let ((l557 (= |next.round| |state.round|))) (let ((l558 (and l556 l262 l116 l120 l131 l557 l135))) (let ((l559 (or l136 l263 l555 l558))) (let ((l560 (and l0 l1 l559))) l560)))))))))))))))))))))))))))))))))))))))))))))))))))))))))))))))))))))))))))))))))))))))))))))))))))))))))))))))))))))))))))))))))))))))))))))))))))))))))))))))))))))))))))))))))))))))))))))))))))))))))))))))))))))))))))))))))))))))))))))))))))))))))))))))))))))))))))))))))))))))))))))))))))))))))))))))))))))))))))))))))))))))))))))))))))))))))))))))))))))))))))))))))))))))))))))))))))))))))))))))))))))))))))))))))))))))))))))))))))))))))))))))))))))))))))))))))))))))))))))))))))))))))))))))))))))))))))))))))))))))))))))))))))))))))))))))))))))))))))))))))
        )
        (invariant next.cx!0!0 next.cx!0!1 next.cx!0!2 next.cx!0!3 next.cx!0!4 next.cx!0!5 next.cx!0!6 next.cx!0!7 next.cx!0!8 next.cx!0!9 next.cx!1!0 next.cx!1!1 next.cx!1!2 next.cx!1!3 next.cx!1!4 next.cx!1!5 next.cx!1!6 next.cx!1!7 next.cx!1!8 next.cx!1!9 next.cx!2!0 next.cx!2!1 next.cx!2!2 next.cx!2!3 next.cx!2!4 next.cx!2!5 next.cx!2!6 next.cx!2!7 next.cx!2!8 next.cx!2!9 next.cy!0!0 next.cy!0!1 next.cy!0!2 next.cy!0!3 next.cy!0!4 next.cy!0!5 next.cy!0!6 next.cy!0!7 next.cy!0!8 next.cy!0!9 next.cy!1!0 next.cy!1!1 next.cy!1!2 next.cy!1!3 next.cy!1!4 next.cy!1!5 next.cy!1!6 next.cy!1!7 next.cy!1!8 next.cy!1!9 next.cy!2!0 next.cy!2!1 next.cy!2!2 next.cy!2!3 next.cy!2!4 next.cy!2!5 next.cy!2!6 next.cy!2!7 next.cy!2!8 next.cy!2!9 next.good_p!0 next.good_p!1 next.good_p!2 next.good_r!0 next.good_r!1 next.good_r!2 next.good_r!3 next.good_r!4 next.good_r!5 next.good_r!6 next.good_r!7 next.good_r!8 next.good_r!9 next.v!0 next.v!1 next.v!2 next.round next.source next.val)
    )
  )
)

;; Property
(assert
  (forall ((state.cx!0!0 Real) (state.cx!0!1 Real) (state.cx!0!2 Real) (state.cx!0!3 Real) (state.cx!0!4 Real) (state.cx!0!5 Real) (state.cx!0!6 Real) (state.cx!0!7 Real) (state.cx!0!8 Real) (state.cx!0!9 Real) (state.cx!1!0 Real) (state.cx!1!1 Real) (state.cx!1!2 Real) (state.cx!1!3 Real) (state.cx!1!4 Real) (state.cx!1!5 Real) (state.cx!1!6 Real) (state.cx!1!7 Real) (state.cx!1!8 Real) (state.cx!1!9 Real) (state.cx!2!0 Real) (state.cx!2!1 Real) (state.cx!2!2 Real) (state.cx!2!3 Real) (state.cx!2!4 Real) (state.cx!2!5 Real) (state.cx!2!6 Real) (state.cx!2!7 Real) (state.cx!2!8 Real) (state.cx!2!9 Real) (state.cy!0!0 Real) (state.cy!0!1 Real) (state.cy!0!2 Real) (state.cy!0!3 Real) (state.cy!0!4 Real) (state.cy!0!5 Real) (state.cy!0!6 Real) (state.cy!0!7 Real) (state.cy!0!8 Real) (state.cy!0!9 Real) (state.cy!1!0 Real) (state.cy!1!1 Real) (state.cy!1!2 Real) (state.cy!1!3 Real) (state.cy!1!4 Real) (state.cy!1!5 Real) (state.cy!1!6 Real) (state.cy!1!7 Real) (state.cy!1!8 Real) (state.cy!1!9 Real) (state.cy!2!0 Real) (state.cy!2!1 Real) (state.cy!2!2 Real) (state.cy!2!3 Real) (state.cy!2!4 Real) (state.cy!2!5 Real) (state.cy!2!6 Real) (state.cy!2!7 Real) (state.cy!2!8 Real) (state.cy!2!9 Real) (state.good_p!0 Bool) (state.good_p!1 Bool) (state.good_p!2 Bool) (state.good_r!0 Bool) (state.good_r!1 Bool) (state.good_r!2 Bool) (state.good_r!3 Bool) (state.good_r!4 Bool) (state.good_r!5 Bool) (state.good_r!6 Bool) (state.good_r!7 Bool) (state.good_r!8 Bool) (state.good_r!9 Bool) (state.v!0 Real) (state.v!1 Real) (state.v!2 Real) (state.round Real) (state.source Real) (state.val Real))
    (=> (invariant state.cx!0!0 state.cx!0!1 state.cx!0!2 state.cx!0!3 state.cx!0!4 state.cx!0!5 state.cx!0!6 state.cx!0!7 state.cx!0!8 state.cx!0!9 state.cx!1!0 state.cx!1!1 state.cx!1!2 state.cx!1!3 state.cx!1!4 state.cx!1!5 state.cx!1!6 state.cx!1!7 state.cx!1!8 state.cx!1!9 state.cx!2!0 state.cx!2!1 state.cx!2!2 state.cx!2!3 state.cx!2!4 state.cx!2!5 state.cx!2!6 state.cx!2!7 state.cx!2!8 state.cx!2!9 state.cy!0!0 state.cy!0!1 state.cy!0!2 state.cy!0!3 state.cy!0!4 state.cy!0!5 state.cy!0!6 state.cy!0!7 state.cy!0!8 state.cy!0!9 state.cy!1!0 state.cy!1!1 state.cy!1!2 state.cy!1!3 state.cy!1!4 state.cy!1!5 state.cy!1!6 state.cy!1!7 state.cy!1!8 state.cy!1!9 state.cy!2!0 state.cy!2!1 state.cy!2!2 state.cy!2!3 state.cy!2!4 state.cy!2!5 state.cy!2!6 state.cy!2!7 state.cy!2!8 state.cy!2!9 state.good_p!0 state.good_p!1 state.good_p!2 state.good_r!0 state.good_r!1 state.good_r!2 state.good_r!3 state.good_r!4 state.good_r!5 state.good_r!6 state.good_r!7 state.good_r!8 state.good_r!9 state.v!0 state.v!1 state.v!2 state.round state.source state.val)
        (let ((l0 (< |state.round| 3))) (let ((l1 (not |state.good_p!0|))) (let ((l2 (not |state.good_p!1|))) (let ((l3 (= |state.v!0| |state.v!1|))) (let ((l4 (or l2 l3))) (let ((l5 (not |state.good_p!2|))) (let ((l6 (= |state.v!0| |state.v!2|))) (let ((l7 (or l5 l6))) (let ((l8 (and l4 l7))) (let ((l9 (or l1 l8))) (let ((l10 (= |state.v!1| |state.v!0|))) (let ((l11 (or l1 l10))) (let ((l12 (= |state.v!1| |state.v!2|))) (let ((l13 (or l5 l12))) (let ((l14 (and l11 l13))) (let ((l15 (or l2 l14))) (let ((l16 (= |state.v!2| |state.v!0|))) (let ((l17 (or l1 l16))) (let ((l18 (= |state.v!2| |state.v!1|))) (let ((l19 (or l2 l18))) (let ((l20 (and l17 l19))) (let ((l21 (or l5 l20))) (let ((l22 (and l9 l15 l21))) (let ((l23 (or l0 l22))) l23))))))))))))))))))))))))
    )
  )
)

;; Check the property
(check-sat)
